PreSolver/instances/dataset_final/sat_tseitin_20_118_71779.cnf
c description: Tseitin formula on , with even charge
c generator: CNFgen (0.9.0)
c copyright: (C) 2012-2020 Massimo Lauria <massimo.lauria@uniroma1.it>
c url: https://massimolauria.net/cnfgen
c
p cnf 20 118
1 2 -3 0
1 -2 3 0
-1 2 3 0
-1 -2 -3 0
4 -5 0
-4 5 0
1 6 7 -8 0
1 6 -7 8 0
1 -6 7 8 0
1 -6 -7 -8 0
-1 6 7 8 0
-1 6 -7 -8 0
-1 -6 7 -8 0
-1 -6 -7 8 0
6 9 10 11 12 -13 0
6 9 10 11 -12 13 0
6 9 10 -11 12 13 0
6 9 10 -11 -12 -13 0
6 9 -10 11 12 13 0
6 9 -10 11 -12 -13 0
6 9 -10 -11 12 -13 0
6 9 -10 -11 -12 13 0
6 -9 10 11 12 13 0
6 -9 10 11 -12 -13 0
6 -9 10 -11 12 -13 0
6 -9 10 -11 -12 13 0
6 -9 -10 11 12 -13 0
6 -9 -10 11 -12 13 0
6 -9 -10 -11 12 13 0
6 -9 -10 -11 -12 -13 0
-6 9 10 11 12 13 0
-6 9 10 11 -12 -13 0
-6 9 10 -11 12 -13 0
-6 9 10 -11 -12 13 0
-6 9 -10 11 12 -13 0
-6 9 -10 11 -12 13 0
-6 9 -10 -11 12 13 0
-6 9 -10 -11 -12 -13 0
-6 -9 10 11 12 -13 0
-6 -9 10 11 -12 13 0
-6 -9 10 -11 12 13 0
-6 -9 10 -11 -12 -13 0
-6 -9 -10 11 12 13 0
-6 -9 -10 11 -12 -13 0
-6 -9 -10 -11 12 -13 0
-6 -9 -10 -11 -12 13 0
9 14 15 -16 0
9 14 -15 16 0
9 -14 15 16 0
9 -14 -15 -16 0
-9 14 15 16 0
-9 14 -15 -16 0
-9 -14 15 -16 0
-9 -14 -15 16 0
7 10 14 -17 0
7 10 -14 17 0
7 -10 14 17 0
7 -10 -14 -17 0
-7 10 14 17 0
-7 10 -14 -17 0
-7 -10 14 -17 0
-7 -10 -14 17 0
11 15 -18 0
11 -15 18 0
-11 15 18 0
-11 -15 -18 0
2 8 12 18 -19 0
2 8 12 -18 19 0
2 8 -12 18 19 0
2 8 -12 -18 -19 0
2 -8 12 18 19 0
2 -8 12 -18 -19 0
2 -8 -12 18 -19 0
2 -8 -12 -18 19 0
-2 8 12 18 19 0
-2 8 12 -18 -19 0
-2 8 -12 18 -19 0
-2 8 -12 -18 19 0
-2 -8 12 18 -19 0
-2 -8 12 -18 19 0
-2 -8 -12 18 19 0
-2 -8 -12 -18 -19 0
4 19 -20 0
4 -19 20 0
-4 19 20 0
-4 -19 -20 0
3 5 13 16 17 -20 0
3 5 13 16 -17 20 0
3 5 13 -16 17 20 0
3 5 13 -16 -17 -20 0
3 5 -13 16 17 20 0
3 5 -13 16 -17 -20 0
3 5 -13 -16 17 -20 0
3 5 -13 -16 -17 20 0
3 -5 13 16 17 20 0
3 -5 13 16 -17 -20 0
3 -5 13 -16 17 -20 0
3 -5 13 -16 -17 20 0
3 -5 -13 16 17 -20 0
3 -5 -13 16 -17 20 0
3 -5 -13 -16 17 20 0
3 -5 -13 -16 -17 -20 0
-3 5 13 16 17 20 0
-3 5 13 16 -17 -20 0
-3 5 13 -16 17 -20 0
-3 5 13 -16 -17 20 0
-3 5 -13 16 17 -20 0
-3 5 -13 16 -17 20 0
-3 5 -13 -16 17 20 0
-3 5 -13 -16 -17 -20 0
-3 -5 13 16 17 -20 0
-3 -5 13 16 -17 20 0
-3 -5 13 -16 17 20 0
-3 -5 13 -16 -17 -20 0
-3 -5 -13 16 17 20 0
-3 -5 -13 16 -17 -20 0
-3 -5 -13 -16 17 -20 0
-3 -5 -13 -16 -17 20 0